words_hard_train/2547.qaiger
aag 45 15 0 1 30
2
4
8
12
14
18
24
26
30
38
40
44
46
56
60
91
6 3 5
10 6 8
16 13 15
20 17 19
22 11 21
28 25 27
32 29 31
34 7 9
36 33 35
42 39 41
48 45 47
50 43 48
52 28 30
54 51 53
58 17 57
62 29 61
64 59 63
66 16 56
68 67 7
70 64 69
72 28 60
74 71 73
76 38 40
78 77 49
80 75 79
82 54 81
84 36 83
86 22 85
88 16 18
90 87 89
i0 2 y1[6]
i1 2 y1[1]
i2 1 x2[6]
i3 2 y1[7]
i4 2 y1[0]
i5 1 x2[7]
i6 2 y1[5]
i7 2 y1[2]
i8 1 x2[5]
i9 1 x2[3]
i10 1 x2[4]
i11 2 y1[4]
i12 2 y1[3]
i13 1 x2[1]
i14 1 x2[2]
o0 bv[0]
c
simplified
  >=
    or
      reverse
        2 y1
      2 y1
    or
      1
      1 x2
