words_hard_train/2547.qaiger.qdimacs
p cnf 45 91
a 4 9 15 19 20 28 30 0
e 1 2 3 5 6 7 8 10 11 12 13 14 16 17 18 21 22 23 24 25 26 27 29 31 32 33 34 35 36 37 38 39 40 41 42 43 44 45 0
1 2 3 0
-1 -3 0
-2 -3 0
-3 -4 5 0
3 -5 0
4 -5 0
6 7 8 0
-6 -8 0
-7 -8 0
8 9 10 0
-8 -10 0
-9 -10 0
5 10 11 0
-5 -11 0
-10 -11 0
12 13 14 0
-12 -14 0
-13 -14 0
14 15 16 0
-14 -16 0
-15 -16 0
3 4 17 0
-3 -17 0
-4 -17 0
16 17 18 0
-16 -18 0
-17 -18 0
19 20 21 0
-19 -21 0
-20 -21 0
22 23 24 0
-22 -24 0
-23 -24 0
21 -24 25 0
-21 -25 0
24 -25 0
-14 -15 26 0
14 -26 0
15 -26 0
25 26 27 0
-25 -27 0
-26 -27 0
8 28 29 0
-8 -29 0
-28 -29 0
14 30 31 0
-14 -31 0
-30 -31 0
29 31 32 0
-29 -32 0
-31 -32 0
-8 -28 33 0
8 -33 0
28 -33 0
33 3 34 0
-33 -34 0
-3 -34 0
-32 34 35 0
32 -35 0
-34 -35 0
-14 -30 36 0
14 -36 0
30 -36 0
35 36 37 0
-35 -37 0
-36 -37 0
-19 -20 38 0
19 -38 0
20 -38 0
38 24 39 0
-38 -39 0
-24 -39 0
37 39 40 0
-37 -40 0
-39 -40 0
-27 40 41 0
27 -41 0
-40 -41 0
-18 41 42 0
18 -42 0
-41 -42 0
-11 42 43 0
11 -43 0
-42 -43 0
-8 -9 44 0
8 -44 0
9 -44 0
43 44 45 0
-43 -45 0
-44 -45 0
-45 0
